Instance: E200-17b.dat
Class:  2
  199 --- number of customers (no depot)
   38 --- number of vehicles
  299 --- number of items
Capacity - height - width of vehicles
   200     40     20
Node - x - y - demand
    0    35.0    35.0     0.0
    1    41.0    49.0    10.0
    2    35.0    17.0     7.0
    3    55.0    45.0    13.0
    4    55.0    20.0    19.0
    5    15.0    30.0    26.0
    6    25.0    30.0     3.0
    7    20.0    50.0     5.0
    8    10.0    43.0     9.0
    9    55.0    60.0    16.0
   10    30.0    60.0    16.0
   11    20.0    65.0    12.0
   12    50.0    35.0    19.0
   13    30.0    25.0    23.0
   14    15.0    10.0    20.0
   15    30.0     5.0     8.0
   16    10.0    20.0    19.0
   17     5.0    30.0     2.0
   18    20.0    40.0    12.0
   19    15.0    60.0    17.0
   20    45.0    65.0     9.0
   21    45.0    20.0    11.0
   22    45.0    10.0    18.0
   23    55.0     5.0    29.0
   24    65.0    35.0     3.0
   25    65.0    20.0     6.0
   26    45.0    30.0    17.0
   27    35.0    40.0    16.0
   28    41.0    37.0    16.0
   29    64.0    42.0     9.0
   30    40.0    60.0    21.0
   31    31.0    52.0    27.0
   32    35.0    69.0    23.0
   33    53.0    52.0    11.0
   34    65.0    55.0    14.0
   35    63.0    65.0     8.0
   36     2.0    60.0     5.0
   37    20.0    20.0     8.0
   38     5.0     5.0    16.0
   39    60.0    12.0    31.0
   40    40.0    25.0     9.0
   41    42.0     7.0     5.0
   42    24.0    12.0     5.0
   43    23.0     3.0     7.0
   44    11.0    14.0    18.0
   45     6.0    38.0    16.0
   46     2.0    48.0     1.0
   47     8.0    56.0    27.0
   48    13.0    52.0    36.0
   49     6.0    68.0    30.0
   50    47.0    47.0    13.0
   51    49.0    58.0    10.0
   52    27.0    43.0     9.0
   53    37.0    31.0    14.0
   54    57.0    29.0    18.0
   55    63.0    23.0     2.0
   56    53.0    12.0     6.0
   57    32.0    12.0     7.0
   58    36.0    26.0    18.0
   59    21.0    24.0    28.0
   60    17.0    34.0     3.0
   61    12.0    24.0    13.0
   62    24.0    58.0    19.0
   63    27.0    69.0    10.0
   64    15.0    77.0     9.0
   65    62.0    77.0    20.0
   66    49.0    73.0    25.0
   67    67.0     5.0    25.0
   68    56.0    39.0    36.0
   69    37.0    47.0     6.0
   70    37.0    56.0     5.0
   71    57.0    68.0    15.0
   72    47.0    16.0    25.0
   73    44.0    17.0     9.0
   74    46.0    13.0     8.0
   75    49.0    11.0    18.0
   76    49.0    42.0    13.0
   77    53.0    43.0    14.0
   78    61.0    52.0     3.0
   79    57.0    48.0    23.0
   80    56.0    37.0     6.0
   81    55.0    54.0    26.0
   82    15.0    47.0    16.0
   83    14.0    37.0    11.0
   84    11.0    31.0     7.0
   85    16.0    22.0    41.0
   86     4.0    18.0    35.0
   87    28.0    18.0    26.0
   88    26.0    52.0     9.0
   89    26.0    35.0    15.0
   90    31.0    67.0     3.0
   91    15.0    19.0     1.0
   92    22.0    22.0     2.0
   93    18.0    24.0    22.0
   94    26.0    27.0    27.0
   95    25.0    24.0    20.0
   96    22.0    27.0    11.0
   97    25.0    21.0    12.0
   98    19.0    21.0    10.0
   99    20.0    26.0     9.0
  100    18.0    18.0    17.0
  101    37.0    52.0     7.0
  102    49.0    49.0    30.0
  103    52.0    64.0    16.0
  104    20.0    26.0     9.0
  105    40.0    30.0    21.0
  106    21.0    47.0    15.0
  107    17.0    63.0    19.0
  108    31.0    62.0    23.0
  109    52.0    33.0    11.0
  110    51.0    21.0     5.0
  111    42.0    41.0    19.0
  112    31.0    32.0    29.0
  113     5.0    25.0    23.0
  114    12.0    42.0    21.0
  115    36.0    16.0    10.0
  116    52.0    41.0    15.0
  117    27.0    23.0     3.0
  118    17.0    33.0    41.0
  119    13.0    13.0     9.0
  120    57.0    58.0    28.0
  121    62.0    42.0     8.0
  122    42.0    57.0     8.0
  123    16.0    57.0    16.0
  124     8.0    52.0    10.0
  125     7.0    38.0    28.0
  126    27.0    68.0     7.0
  127    30.0    48.0    15.0
  128    43.0    67.0    14.0
  129    58.0    48.0     6.0
  130    58.0    27.0    19.0
  131    37.0    69.0    11.0
  132    38.0    46.0    12.0
  133    46.0    10.0    23.0
  134    61.0    33.0    26.0
  135    62.0    63.0    17.0
  136    63.0    69.0     6.0
  137    32.0    22.0     9.0
  138    45.0    35.0    15.0
  139    59.0    15.0    14.0
  140     5.0     6.0     7.0
  141    10.0    17.0    27.0
  142    21.0    10.0    13.0
  143     5.0    64.0    11.0
  144    30.0    15.0    16.0
  145    39.0    10.0    10.0
  146    32.0    39.0     5.0
  147    25.0    32.0    25.0
  148    25.0    55.0    17.0
  149    48.0    28.0    18.0
  150    56.0    37.0    10.0
  151    22.0    22.0    18.0
  152    36.0    26.0    26.0
  153    21.0    45.0    11.0
  154    45.0    35.0    30.0
  155    55.0    20.0    21.0
  156    33.0    34.0    19.0
  157    50.0    50.0    15.0
  158    55.0    45.0    16.0
  159    26.0    59.0    29.0
  160    40.0    66.0    26.0
  161    55.0    65.0    37.0
  162    35.0    51.0    16.0
  163    62.0    35.0    12.0
  164    62.0    57.0    31.0
  165    62.0    24.0     8.0
  166    21.0    36.0    19.0
  167    33.0    44.0    20.0
  168     9.0    56.0    13.0
  169    62.0    48.0    15.0
  170    66.0    14.0    22.0
  171    44.0    13.0    28.0
  172    26.0    13.0    12.0
  173    11.0    28.0     6.0
  174     7.0    43.0    27.0
  175    17.0    64.0    14.0
  176    41.0    46.0    18.0
  177    55.0    34.0    17.0
  178    35.0    16.0    29.0
  179    52.0    26.0    13.0
  180    43.0    26.0    22.0
  181    31.0    76.0    25.0
  182    22.0    53.0    28.0
  183    26.0    29.0    27.0
  184    50.0    40.0    19.0
  185    55.0    50.0    10.0
  186    54.0    10.0    12.0
  187    60.0    15.0    14.0
  188    47.0    66.0    24.0
  189    30.0    60.0    16.0
  190    30.0    50.0    33.0
  191    12.0    17.0    15.0
  192    15.0    14.0    11.0
  193    16.0    19.0    18.0
  194    21.0    48.0    17.0
  195    50.0    30.0    21.0
  196    51.0    42.0    27.0
  197    50.0    15.0    19.0
  198    48.0    21.0    20.0
  199    12.0    38.0     5.0
Node - number of items - h - w for each item
    0   0
    1   2    7   10   33    3
    2   1   11    9
    3   1    8   14
    4   2    7   17   17    3
    5   1    9    5
    6   2   19    3   17    3
    7   1   18    7
    8   1    7   13
    9   2   10    9    8    4
   10   2    8   15   14    5
   11   1    7   12
   12   2   14   10   13    8
   13   2    4   10   12    4
   14   2   19    6   19    2
   15   1   24    3
   16   1   15    8
   17   2    8    9   16    7
   18   1   26    4
   19   1   18    9
   20   1    7   14
   21   1   21    4
   22   2    5   11   30    3
   23   1   28    2
   24   1   18    9
   25   2    6   13   23    3
   26   1   19    7
   27   2    7   12   34    3
   28   2    7   11   34    3
   29   1   12    9
   30   1    7    9
   31   1   15    5
   32   1   16    4
   33   1   13    7
   34   2   14    8    9    5
   35   2   17    6   15    6
   36   1   30    3
   37   1   16    8
   38   2    5   13   36    4
   39   2   12    5   36    4
   40   2   18    7   32    3
   41   2   16    8   10    6
   42   2    4   15   15    6
   43   1    4   16
   44   2    7   11   13    7
   45   2   24    4   36    3
   46   1   13    9
   47   2    4   17   34    3
   48   2    6   15    7   11
   49   1    4   12
   50   1   34    3
   51   2   10   10   21    3
   52   1   11    9
   53   1   19    3
   54   2    5   11   20    3
   55   1    7   14
   56   2   34    4   33    3
   57   2    5   10   11    7
   58   2    4   15    8   14
   59   1    6   16
   60   2    8    9    4    9
   61   2    9    7   18    4
   62   1   23    2
   63   1   22    3
   64   2    5   14    4   12
   65   2    7   11   29    2
   66   1   10    8
   67   1   24    3
   68   1    5   17
   69   1   35    4
   70   1   28    3
   71   2    5   15   17    8
   72   2   10    6   32    3
   73   1   24    3
   74   1   18    9
   75   1    5   11
   76   2    8   15    8   14
   77   1   32    3
   78   1   31    3
   79   2    8   13    4   10
   80   2    5   11   11    5
   81   2   13    6   36    3
   82   1   17    5
   83   1   15    4
   84   1    8   14
   85   1    5    8
   86   1   20    3
   87   2   12    6   10    6
   88   1    5   17
   89   2   11    9   19    4
   90   1    7   10
   91   1   20    3
   92   2   12    8   15    7
   93   2   18    5   32    3
   94   1    5    9
   95   1    8    7
   96   2   18    4   25    3
   97   1    5   12
   98   1   29    3
   99   1    6    9
  100   2    6    8   31    2
  101   2   16    8   16    8
  102   1   12    6
  103   2    7   15   15    5
  104   1    7   13
  105   2   23    4   29    3
  106   2   11    8   18    5
  107   2    7   15   16    2
  108   1    7   12
  109   2    5   15    7   11
  110   1   14    9
  111   2    5   10    9    6
  112   1   10   10
  113   2    6   18   11    7
  114   1   35    4
  115   2   23    4   34    3
  116   2   25    3   20    2
  117   1   33    4
  118   2    5   17    7   16
  119   2    8   10   27    2
  120   1    7   11
  121   1   14    7
  122   1    8   11
  123   2   10    5   19    3
  124   1   34    3
  125   1   28    2
  126   2   16    8   33    3
  127   2    7   11   29    4
  128   1    5   10
  129   1    5   17
  130   2    7   13   13    8
  131   2    7   17   19    9
  132   1   17    3
  133   2   18    3   33    2
  134   2    7    9   24    3
  135   1    4   13
  136   1   14    4
  137   2   35    3   27    2
  138   1    4    9
  139   1   18    8
  140   2   34    3   22    3
  141   2    5   15   18    9
  142   1    5   15
  143   2   16    8   16    8
  144   2    7   12   16    7
  145   2    7   17   11    5
  146   2   28    3   22    3
  147   1   26    4
  148   2    8   11    8    9
  149   1   10    7
  150   2    7   15    7    9
  151   2   17    7    9    7
  152   1   21    3
  153   2    4   18    4   13
  154   2    8   18   35    2
  155   1    5   14
  156   2   10    8   11    6
  157   2   15    8   18    4
  158   1   22    4
  159   1   20    8
  160   1   33    4
  161   2   16    5   34    3
  162   2   25    3   18    3
  163   2    9    6   25    2
  164   1   17    6
  165   1   35    2
  166   2    5   17   16    7
  167   2   11    9   22    4
  168   2   13    9   16    5
  169   1   21    2
  170   2    6   14   14    5
  171   2    5   18   17    2
  172   2    7   11   36    3
  173   2    5   10   11    6
  174   1    6   16
  175   1   32    2
  176   1   18    4
  177   1   18    3
  178   2    7   18    8   12
  179   1    7   17
  180   1   18    7
  181   2   18    7   17    5
  182   2   29    4   17    3
  183   2   31    4   18    4
  184   1   17    4
  185   2   11    8   18    3
  186   1    8    5
  187   1   35    4
  188   2   19   10   33    2
  189   1    7    8
  190   1   20    4
  191   2    7   11    6    9
  192   2    5   16    4   15
  193   2   12    8   32    4
  194   2   14    9   33    3
  195   2   16    8   12    7
  196   1   14    7
  197   1   35    3
  198   1   30    3
  199   2   12    6   33    2
